NAME: set2_case2_9_25
COMMENT: 2115
VEHICLE: 46
TIME: 600
DIMENSION: 20
CAPACITY: 10
DELIVERY_SECTION
0 0 0
1 1 2.5
2 1 2.5
3 1 2.5
4 1 2.5
5 1 2.5
6 1 2.5
7 2 2.5
8 2 2.5
9 2 2.5
10 2 2.5
11 2 2.5
12 2 2.5
13 2 1
14 3 2.5
15 3 2.5
16 3 2.5
17 3 2.5
18 3 2.5
19 3 2.5
20 3 1
21 3 1
22 4 2.5
23 4 2.5
24 4 2.5
25 4 2.5
26 4 2.5
27 4 2.5
28 4 2.5
29 4 0.5
30 5 2.5
31 5 2.5
32 5 2.5
33 5 2.5
34 5 2.5
35 5 2.5
36 5 2.5
37 5 1
38 5 0.5
39 6 2.5
40 6 2.5
41 6 2.5
42 6 2.5
43 6 2.5
44 6 2.5
45 6 2.5
46 6 2.5
47 7 2.5
48 7 2.5
49 7 2.5
50 7 2.5
51 7 2.5
52 7 2.5
53 7 2.5
54 7 2.5
55 7 1
56 8 2.5
57 8 2.5
58 8 2.5
59 8 2.5
60 8 2.5
61 8 2.5
62 8 2.5
63 8 2.5
64 8 1
65 8 1
66 9 2.5
67 9 2.5
68 9 2.5
69 9 2.5
70 9 2.5
71 9 2.5
72 9 2.5
73 9 2.5
74 9 2.5
75 9 0.5
76 10 2.5
77 10 2.5
78 10 2.5
79 10 2.5
80 10 2.5
81 10 2.5
82 10 2.5
83 10 2.5
84 10 2.5
85 10 1
86 10 0.5
87 11 2.5
88 11 2.5
89 11 2.5
90 11 2.5
91 11 2.5
92 11 2.5
93 11 2.5
94 11 2.5
95 11 2.5
96 11 2.5
97 12 2.5
98 12 2.5
99 12 2.5
100 12 2.5
101 12 2.5
102 12 2.5
103 12 2.5
104 12 2.5
105 12 2.5
106 12 2.5
107 12 1
108 13 2.5
109 13 2.5
110 13 2.5
111 13 2.5
112 13 2.5
113 13 2.5
114 13 2.5
115 13 2.5
116 13 2.5
117 13 2.5
118 13 1
119 13 1
120 14 2.5
121 14 2.5
122 14 2.5
123 14 2.5
124 14 2.5
125 14 2.5
126 14 2.5
127 14 2.5
128 14 2.5
129 14 2.5
130 14 2.5
131 14 0.5
132 15 2.5
133 15 2.5
134 15 2.5
135 15 2.5
136 15 2.5
137 15 2.5
138 15 2.5
139 15 2.5
140 15 2.5
141 15 2.5
142 15 2.5
143 15 1
144 15 0.5
145 16 2.5
146 16 2.5
147 16 2.5
148 16 2.5
149 16 2.5
150 16 2.5
151 16 2.5
152 16 2.5
153 16 2.5
154 16 2.5
155 16 2.5
156 16 2.5
157 17 2.5
158 17 2.5
159 17 2.5
160 17 2.5
161 17 2.5
162 17 2.5
163 17 2.5
164 17 2.5
165 17 2.5
166 17 2.5
167 17 2.5
168 17 2.5
169 17 1
170 18 2.5
171 18 2.5
172 18 2.5
173 18 2.5
174 18 2.5
175 18 2.5
176 18 2.5
177 18 2.5
178 18 2.5
179 18 2.5
180 18 2.5
181 18 2.5
182 18 1
183 18 1
184 19 2.5
185 19 2.5
186 19 2.5
187 19 2.5
188 19 2.5
189 19 2.5
190 19 2.5
191 19 2.5
192 19 2.5
193 19 2.5
194 19 2.5
195 19 2.5
196 19 2.5
197 19 0.5
PICKUP_SECTION
0 0 0
1 1 2.5
2 1 2.5
3 1 2.5
4 1 2.5
5 1 2.5
6 1 2.5
7 1 2.5
8 1 2.5
9 2 2.5
10 2 2.5
11 2 2.5
12 2 2.5
13 2 2.5
14 2 2.5
15 2 2.5
16 2 2.5
17 3 2.5
18 3 2.5
19 3 2.5
20 3 2.5
21 3 2.5
22 3 2.5
23 3 2.5
24 3 2.5
25 4 2.5
26 4 2.5
27 4 2.5
28 4 2.5
29 4 2.5
30 4 2.5
31 4 2.5
32 4 2.5
33 5 2.5
34 5 2.5
35 5 2.5
36 5 2.5
37 5 2.5
38 5 2.5
39 5 2.5
40 5 2.5
41 6 2.5
42 6 2.5
43 6 2.5
44 6 2.5
45 6 2.5
46 6 2.5
47 6 2.5
48 6 2.5
49 7 2.5
50 7 2.5
51 7 2.5
52 7 2.5
53 7 2.5
54 7 2.5
55 7 2.5
56 7 2.5
57 8 2.5
58 8 2.5
59 8 2.5
60 8 2.5
61 8 2.5
62 8 2.5
63 8 2.5
64 8 2.5
65 9 2.5
66 9 2.5
67 9 2.5
68 9 2.5
69 9 2.5
70 9 2.5
71 9 2.5
72 9 2.5
73 10 2.5
74 10 2.5
75 10 2.5
76 10 2.5
77 10 2.5
78 10 2.5
79 10 2.5
80 10 2.5
81 11 2.5
82 11 2.5
83 11 2.5
84 11 2.5
85 11 2.5
86 11 2.5
87 11 2.5
88 11 2.5
89 12 2.5
90 12 2.5
91 12 2.5
92 12 2.5
93 12 2.5
94 12 2.5
95 12 2.5
96 12 2.5
97 13 2.5
98 13 2.5
99 13 2.5
100 13 2.5
101 13 2.5
102 13 2.5
103 13 2.5
104 13 2.5
105 14 2.5
106 14 2.5
107 14 2.5
108 14 2.5
109 14 2.5
110 14 2.5
111 14 2.5
112 14 2.5
113 15 2.5
114 15 2.5
115 15 2.5
116 15 2.5
117 15 2.5
118 15 2.5
119 15 2.5
120 15 2.5
121 16 2.5
122 16 2.5
123 16 2.5
124 16 2.5
125 16 2.5
126 16 2.5
127 16 2.5
128 16 2.5
129 17 2.5
130 17 2.5
131 17 2.5
132 17 2.5
133 17 2.5
134 17 2.5
135 17 2.5
136 17 2.5
137 18 2.5
138 18 2.5
139 18 2.5
140 18 2.5
141 18 2.5
142 18 2.5
143 18 2.5
144 18 2.5
145 19 2.5
146 19 2.5
147 19 2.5
148 19 2.5
149 19 2.5
150 19 2.5
151 19 2.5
152 19 2.5
NODE_SECTION
DISTANCE_SECTION
10 11 12 13 14 15 16 17 18 19 20 21 22 23 24 25 26 27 28 
10 11 12 13 14 15 16 17 18 19 20 21 22 23 24 25 26 27 
10 11 12 13 14 15 16 17 18 19 20 21 22 23 24 25 26 
10 11 12 13 14 15 16 17 18 19 20 21 22 23 24 25 
10 11 12 13 14 15 16 17 18 19 20 21 22 23 24 
10 11 12 13 14 15 16 17 18 19 20 21 22 23 
10 11 12 13 14 15 16 17 18 19 20 21 22 
10 11 12 13 14 15 16 17 18 19 20 21 
10 11 12 13 14 15 16 17 18 19 20 
10 11 12 13 14 15 16 17 18 19 
10 11 12 13 14 15 16 17 18 
10 11 12 13 14 15 16 17 
10 11 12 13 14 15 16 
10 11 12 13 14 15 
10 11 12 13 14 
10 11 12 13 
10 11 12 
10 11 
10 
DEPOT_SECTION
0
EOF